NAME: ACTUAL_TOURS/amz1464
TYPE: TOUR
COMMENT: RouteID_9c3527ce-5da6-44b8-acce-fc703fcf1439
DIMENSION: 104
TOUR_SECTION
19
82
89
24
34
86
90
76
87
11
57
13
102
10
41
50
25
85
18
93
54
91
3
35
4
53
26
99
83
48
36
95
2
15
72
98
39
55
12
43
42
9
69
59
61
23
52
46
22
62
71
40
30
103
100
27
38
74
75
65
96
45
16
7
29
79
51
73
63
101
77
21
56
88
49
44
28
5
78
17
84
14
68
20
94
66
58
37
1
81
32
80
92
70
64
8
47
67
31
6
97
33
60
104
-1
EOF
